0 4414
2401 4308
4802 4221
7203 4139
9604 4047
12005 3977
14406 3926
16807 3887
19208 3845
21609 3802
24010 3771
26411 3748
28812 3728
31213 3714
33614 3691
36015 3685
38416 3674
40817 3662
43218 3651
45619 3641
48020 3617
50421 3610
52822 3607
55223 3588
57624 3578
60025 3574
62426 3550
64827 3549
67228 3548
69629 3545
72030 3539
74431 3534
76832 3515
153664 3512
156065 3505
158466 3503
247303 3502
249704 3499
254506 3497
1039633 3496
1042034 3492
1070846 3490
1073247 3486
1171688 3484
